SLURM_JOB_ID: 55294448
SLURM_JOB_USER: vsc34888
SLURM_JOB_ACCOUNT: lp_elect_gen_modeling
SLURM_JOB_NAME: RTS24_full_MILP_DC
SLURM_CLUSTER_NAME: genius
SLURM_JOB_PARTITION: batch
SLURM_NNODES: 1
SLURM_NODELIST: r22i27n20
SLURM_JOB_CPUS_PER_NODE: 36
Date: Wed Oct 11 17:16:43 CEST 2023
Walltime: 02-00:00:00
========================================================================
Activation OK
Starting runs

 #### Academic research license - for non-commercial use only #### 

RTS24
/lustre1/scratch/348/vsc34888/JointResearch/05.Models/06.Benchmarking/A.The_full_year_MILP
gurobi
['oSN_Main_DCOPF.py', '--case', 'RTS24']
Namespace(case='RTS24', dir='/lustre1/scratch/348/vsc34888/JointResearch/05.Models/06.Benchmarking/A.The_full_year_MILP', solver='gurobi')
Namespace(case='RTS24', dir='/lustre1/scratch/348/vsc34888/JointResearch/05.Models/06.Benchmarking/A.The_full_year_MILP', solver='gurobi')
Reading    input data                 ...  0 s
Setting up input data                 ...  12 s
Generating objective function         ...  14 s
Generating operation & investment     ...  0 s
Generating balance                    ...  30 s
Generating storage operation          ...  0 s
Generating generation commitment      ...  13 s
Generating generation capacity        ...  8 s
Generating network    capacity        ...  19 s
Generating network    constraints     ...  49 s
Econometric analysis  constraints     ...  0 s
Set parameter Username
Set parameter TokenServer to value "SET-S-ME-LM3.luna.kuleuven.be"
Read LP format model from file /tmp/tmp06i0i304.pyomo.lp
Reading time = 10.69 seconds
x1: 3887523 rows, 2254155 columns, 10754708 nonzeros
Set parameter QCPDual to value 1
Set parameter LogFile to value "/lustre1/scratch/348/vsc34888/JointResearch/05.Models/06.Benchmarking/A.The_full_year_MILP/RTS24/openStarNet_RTS24.log"
Set parameter Method to value 2
Set parameter MIPFocus to value 1
Set parameter Presolve to value 2
Set parameter RINS to value 100
Set parameter MIPGap to value 0.01
Set parameter Threads to value 36
Set parameter TimeLimit to value 604800
Set parameter IterationLimit to value 760000000
Gurobi Optimizer version 9.5.0 build v9.5.0rc5 (linux64)
Thread count: 36 physical cores, 36 logical processors, using up to 36 threads
Optimize a model with 3887523 rows, 2254155 columns and 10754708 nonzeros
Model fingerprint: 0x25af2dd5
Variable types: 2254116 continuous, 39 integer (39 binary)
Coefficient statistics:
  Matrix range     [1e-03, 3e+02]
  Objective range  [1e+00, 1e+00]
  Bounds range     [4e-04, 3e+00]
  RHS range        [4e-04, 3e+00]
Presolve removed 1354107 rows and 339479 columns (presolve time = 5s) ...
Presolve removed 1808355 rows and 793727 columns (presolve time = 10s) ...
Presolve removed 1808355 rows and 793727 columns (presolve time = 15s) ...
Presolve removed 1903239 rows and 973167 columns (presolve time = 21s) ...
Presolve removed 1903239 rows and 973167 columns (presolve time = 25s) ...
Presolve removed 1903239 rows and 973167 columns (presolve time = 30s) ...
Presolve removed 1903239 rows and 973167 columns
Presolve time: 34.12s
Presolved: 1984284 rows, 1280988 columns, 6911790 nonzeros
Variable types: 1280949 continuous, 39 integer (39 binary)
Root relaxation presolve removed 0 rows and 0 columns (presolve time = 6s) ...
Root relaxation presolved: 1984284 rows, 1280988 columns, 6911790 nonzeros

Root barrier log...

Ordering time: 0.70s

Barrier statistics:
 Dense cols : 39
 AA' NZ     : 1.468e+07
 Factor NZ  : 5.002e+07 (roughly 1.7 GB of memory)
 Factor Ops : 1.653e+09 (less than 1 second per iteration)
 Threads    : 35

                  Objective                Residual
Iter       Primal          Dual         Primal    Dual     Compl     Time
   0   6.58398627e+05 -4.96941884e+07  4.69e+00 1.37e+00  3.65e+01    58s
   1   8.76831683e+04 -1.38012631e+07  4.78e-01 5.28e-08  4.87e+00    59s
   2   2.78381305e+04 -1.73720248e+06  1.77e-02 6.15e-09  4.51e-01    60s
   3   1.34743892e+04 -1.75688737e+05  4.58e-04 4.39e-10  4.68e-02    61s
   4   3.24069631e+03 -2.20612180e+04  9.04e-05 4.00e-11  6.26e-03    63s
   5   9.79235866e+02 -5.47210536e+03  1.78e-05 1.01e-11  1.60e-03    64s
   6   5.92841642e+02 -2.26163442e+03  7.53e-06 4.19e-12  7.06e-04    65s
   7   4.03740014e+02 -9.68920151e+02  3.88e-06 1.77e-12  3.40e-04    65s
   8   2.80813411e+02 -4.36939241e+02  2.03e-06 1.03e-12  1.78e-04    67s
   9   1.94305326e+02 -1.40561873e+02  9.29e-07 6.25e-13  8.29e-05    68s
  10   1.34283624e+02  1.25198579e+01  3.05e-07 5.61e-13  3.01e-05    69s
  11   1.19859619e+02  5.38245711e+01  1.84e-07 4.48e-13  1.63e-05    70s
  12   1.13731231e+02  5.96059450e+01  1.36e-07 4.26e-13  1.34e-05    72s
  13   1.10481553e+02  6.82105601e+01  1.11e-07 3.13e-13  1.05e-05    73s
  14   1.05357104e+02  7.52164145e+01  7.06e-08 2.20e-13  7.46e-06    73s
  15   1.02565573e+02  7.84112153e+01  4.96e-08 2.84e-13  5.98e-06    75s
  16   1.01321967e+02  8.49385105e+01  4.00e-08 2.24e-13  4.05e-06    76s
  17   1.00136244e+02  8.87705100e+01  3.09e-08 5.33e-13  2.81e-06    78s
  18   9.92319189e+01  8.98271116e+01  2.43e-08 3.27e-13  2.33e-06    80s
  19   9.86685602e+01  9.10986536e+01  2.01e-08 2.70e-13  1.87e-06    82s
  20   9.79756891e+01  9.20508006e+01  1.48e-08 1.78e-13  1.47e-06    84s
  21   9.75630218e+01  9.28225889e+01  1.16e-08 1.69e-13  1.17e-06    86s
  22   9.72742143e+01  9.34340435e+01  9.46e-09 7.18e-13  9.50e-07    88s
  23   9.69878434e+01  9.37632421e+01  7.28e-09 3.62e-13  7.98e-07    90s
  24   9.67998975e+01  9.42529501e+01  5.88e-09 4.62e-13  6.30e-07    92s
  25   9.66433566e+01  9.45489145e+01  4.70e-09 4.05e-13  5.18e-07    94s
  26   9.65276390e+01  9.49154618e+01  3.82e-09 5.90e-13  3.99e-07    95s
  27   9.64084741e+01  9.50738978e+01  2.96e-09 6.04e-13  3.30e-07    97s
  28   9.63183257e+01  9.52277951e+01  2.28e-09 1.23e-13  2.70e-07    99s
  29   9.62591114e+01  9.54756682e+01  1.83e-09 2.98e-13  1.94e-07   101s
  30   9.62023539e+01  9.55288995e+01  1.40e-09 4.83e-13  1.67e-07   103s
  31   9.61760927e+01  9.55779452e+01  1.20e-09 1.49e-13  1.48e-07   105s
  32   9.61338040e+01  9.56414899e+01  9.03e-10 2.84e-13  1.22e-07   107s
  33   9.61012323e+01  9.57000357e+01  6.51e-10 9.59e-14  9.93e-08   109s
  34   9.60824647e+01  9.57510450e+01  5.13e-10 2.56e-13  8.20e-08   111s
  35   9.60636646e+01  9.58000585e+01  3.71e-10 4.41e-13  6.52e-08   113s
  36   9.60501963e+01  9.58409380e+01  3.44e-10 1.99e-13  5.18e-08   115s
  37   9.60479809e+01  9.58458179e+01  2.73e-10 4.05e-13  5.00e-08   117s
  38   9.60420020e+01  9.58789031e+01  3.51e-10 1.95e-13  4.04e-08   120s
  39   9.60378227e+01  9.58943054e+01  2.82e-10 3.41e-13  3.55e-08   122s
  40   9.60366887e+01  9.59112769e+01  2.68e-10 2.38e-13  3.10e-08   124s
  41   9.60324379e+01  9.59215525e+01  2.18e-10 1.07e-13  2.74e-08   126s
  42   9.60286549e+01  9.59296509e+01  1.75e-10 2.66e-13  2.45e-08   129s
  43   9.60262113e+01  9.59429613e+01  1.47e-10 2.31e-13  2.06e-08   131s
  44   9.60250809e+01  9.59519528e+01  1.34e-10 2.49e-13  1.81e-08   133s
  45   9.60238608e+01  9.59600241e+01  1.19e-10 2.20e-13  1.58e-08   136s
  46   9.60217445e+01  9.59696836e+01  4.13e-10 1.99e-13  1.29e-08   139s
  47   9.60207142e+01  9.59730804e+01  3.25e-10 2.27e-13  1.18e-08   141s
  48   9.60200078e+01  9.59787714e+01  2.92e-10 8.53e-14  1.02e-08   143s
  49   9.60195464e+01  9.59846667e+01  2.70e-10 2.77e-13  8.63e-09   145s
  50   9.60180232e+01  9.59894603e+01  2.02e-10 2.20e-13  7.07e-09   148s
  51   9.60174934e+01  9.59915820e+01  1.79e-10 2.06e-13  6.41e-09   151s
  52   9.60171867e+01  9.59923975e+01  1.65e-10 3.20e-13  6.13e-09   154s
  53   9.60165771e+01  9.59945196e+01  1.36e-10 2.27e-13  5.46e-09   156s
  54   9.60161681e+01  9.59985283e+01  1.17e-10 3.34e-13  4.36e-09   158s
  55   9.60157780e+01  9.60000801e+01  1.60e-10 2.98e-13  3.88e-09   161s
  56   9.60156394e+01  9.60013757e+01  1.79e-10 1.78e-13  3.53e-09   163s
  57   9.60151655e+01  9.60032005e+01  1.50e-10 1.42e-13  2.96e-09   165s
  58   9.60150116e+01  9.60053109e+01  1.36e-10 7.64e-14  2.40e-09   168s
  59   9.60146227e+01  9.60059145e+01  1.01e-10 3.48e-13  2.15e-09   170s
  60   9.60139749e+01  9.60080579e+01  4.08e-11 1.95e-13  1.46e-09   173s
  61   9.60135329e+01  9.60125915e+01  2.04e-09 3.41e-13  2.33e-10   175s
  62   9.60135012e+01  9.60130899e+01  6.82e-10 3.48e-13  1.02e-10   178s
  63   9.60135000e+01  9.60131697e+01  1.83e-08 2.88e-13  8.17e-11   180s
  64   9.60134982e+01  9.60132143e+01  1.53e-08 7.99e-14  7.02e-11   182s
  65   9.60134946e+01  9.60133255e+01  8.56e-09 2.31e-13  4.19e-11   183s
  66   9.60134945e+01  9.60134651e+01  8.34e-09 5.17e-13  7.28e-12   184s
  67   9.60134907e+01  9.60134677e+01  8.59e-09 4.96e-13  5.69e-12   185s
  68   9.60134906e+01  9.60134729e+01  8.48e-09 4.23e-13  4.39e-12   187s
  69   9.60134899e+01  9.60134743e+01  1.70e-07 4.39e-13  3.86e-12   188s
  70   9.60134898e+01  9.60134756e+01  1.59e-07 2.81e-13  3.52e-12   189s
  71   9.60134898e+01  9.60134777e+01  1.51e-07 2.26e-13  2.98e-12   190s
  72   9.60134897e+01  9.60134807e+01  1.42e-07 2.52e-13  2.23e-12   192s

Barrier solved model in 72 iterations and 191.62 seconds (134.11 work units)
Optimal objective 9.60135012e+01


Root crossover log...

  286915 DPushes remaining with DInf 2.6346888e-01               193s
   60982 DPushes remaining with DInf 1.1148799e-01               201s
   60792 DPushes remaining with DInf 1.1148799e-01               206s
   60602 DPushes remaining with DInf 1.1148799e-01               212s
   60412 DPushes remaining with DInf 1.1148799e-01               217s
   60222 DPushes remaining with DInf 1.1148799e-01               223s
   60032 DPushes remaining with DInf 1.1148799e-01               228s
   59842 DPushes remaining with DInf 1.1148799e-01               234s
   59652 DPushes remaining with DInf 1.1148799e-01               240s
   59462 DPushes remaining with DInf 1.1148799e-01               245s
   59272 DPushes remaining with DInf 1.1148799e-01               251s
   59082 DPushes remaining with DInf 1.1148799e-01               256s
   58892 DPushes remaining with DInf 1.1148799e-01               262s
   58702 DPushes remaining with DInf 1.1148799e-01               267s
   58512 DPushes remaining with DInf 1.1148799e-01               273s
   58322 DPushes remaining with DInf 1.1148799e-01               278s
   58132 DPushes remaining with DInf 1.1148799e-01               284s
   57942 DPushes remaining with DInf 1.1148799e-01               290s
   57752 DPushes remaining with DInf 1.1148799e-01               295s
   57562 DPushes remaining with DInf 1.1148799e-01               301s
   57372 DPushes remaining with DInf 1.1148799e-01               306s
   57182 DPushes remaining with DInf 1.1148799e-01               312s
   56992 DPushes remaining with DInf 1.1148799e-01               318s
   56802 DPushes remaining with DInf 1.1148799e-01               323s
   56612 DPushes remaining with DInf 1.1148799e-01               329s
   56422 DPushes remaining with DInf 1.1148799e-01               334s
   56232 DPushes remaining with DInf 1.1148799e-01               340s
   56042 DPushes remaining with DInf 1.1148799e-01               345s
   55852 DPushes remaining with DInf 1.1148799e-01               351s
   55662 DPushes remaining with DInf 1.1148799e-01               356s
   55472 DPushes remaining with DInf 1.1148799e-01               362s
   55282 DPushes remaining with DInf 1.1148799e-01               367s
   55092 DPushes remaining with DInf 1.1148799e-01               373s
   54892 DPushes remaining with DInf 1.1148799e-01               379s
   54692 DPushes remaining with DInf 1.1148799e-01               384s
   54492 DPushes remaining with DInf 1.1148799e-01               390s
   54292 DPushes remaining with DInf 1.1148799e-01               395s
   54082 DPushes remaining with DInf 1.1148799e-01               401s
   53872 DPushes remaining with DInf 1.1148799e-01               407s
   53652 DPushes remaining with DInf 1.1148799e-01               412s
   53432 DPushes remaining with DInf 1.1148799e-01               418s
   53202 DPushes remaining with DInf 1.1148799e-01               424s
   52962 DPushes remaining with DInf 1.1148799e-01               430s
   52722 DPushes remaining with DInf 1.1148799e-01               436s
   52482 DPushes remaining with DInf 1.1148799e-01               442s
   52242 DPushes remaining with DInf 1.1148799e-01               447s
   52002 DPushes remaining with DInf 1.1148799e-01               453s
   51762 DPushes remaining with DInf 1.1148799e-01               459s
   51522 DPushes remaining with DInf 1.1148799e-01               465s
   51282 DPushes remaining with DInf 1.1148799e-01               471s
   51042 DPushes remaining with DInf 1.1148799e-01               477s
   50802 DPushes remaining with DInf 1.1148799e-01               483s
   50562 DPushes remaining with DInf 1.1148799e-01               489s
   50322 DPushes remaining with DInf 1.1148799e-01               494s
   50082 DPushes remaining with DInf 1.1148799e-01               500s
   49842 DPushes remaining with DInf 1.1148799e-01               506s
   49602 DPushes remaining with DInf 1.1148799e-01               512s
   49362 DPushes remaining with DInf 1.1148799e-01               518s
   49122 DPushes remaining with DInf 1.1148799e-01               524s
   48882 DPushes remaining with DInf 1.1148799e-01               530s
   48642 DPushes remaining with DInf 1.1148799e-01               535s
   48402 DPushes remaining with DInf 1.1148799e-01               541s
   48162 DPushes remaining with DInf 1.1148799e-01               547s
   47922 DPushes remaining with DInf 1.1148799e-01               553s
   47682 DPushes remaining with DInf 1.1148799e-01               559s
   47442 DPushes remaining with DInf 1.1148799e-01               565s
   47202 DPushes remaining with DInf 1.1148799e-01               571s
   46962 DPushes remaining with DInf 1.1148799e-01               577s
   46722 DPushes remaining with DInf 1.1148799e-01               583s
   46482 DPushes remaining with DInf 1.1126311e-01               588s
   46242 DPushes remaining with DInf 1.1126311e-01               594s
   46002 DPushes remaining with DInf 1.1126311e-01               600s
   45702 DPushes remaining with DInf 1.1126311e-01               606s
   45312 DPushes remaining with DInf 1.1126311e-01               613s
   44922 DPushes remaining with DInf 1.1126311e-01               621s
   44532 DPushes remaining with DInf 1.1126311e-01               628s
   44142 DPushes remaining with DInf 1.1126311e-01               635s
   43752 DPushes remaining with DInf 1.1126311e-01               642s
   43362 DPushes remaining with DInf 1.1126311e-01               649s
   42972 DPushes remaining with DInf 1.1126311e-01               656s
   42582 DPushes remaining with DInf 1.1126311e-01               663s
   42192 DPushes remaining with DInf 1.1126311e-01               670s
   41802 DPushes remaining with DInf 1.1126311e-01               677s
   41412 DPushes remaining with DInf 1.1126311e-01               685s
   41022 DPushes remaining with DInf 1.1126311e-01               692s
   40652 DPushes remaining with DInf 1.1126446e-01               699s
   40372 DPushes remaining with DInf 1.1126446e-01               704s
   40092 DPushes remaining with DInf 1.1126446e-01               710s
   39812 DPushes remaining with DInf 1.1126446e-01               716s
   39522 DPushes remaining with DInf 1.1126446e-01               722s
   39232 DPushes remaining with DInf 1.1126446e-01               727s
   38952 DPushes remaining with DInf 1.1126446e-01               733s
   38672 DPushes remaining with DInf 1.1126446e-01               739s
   38392 DPushes remaining with DInf 1.1126446e-01               744s
   38112 DPushes remaining with DInf 1.1126446e-01               750s
   37842 DPushes remaining with DInf 1.1126446e-01               756s
   37622 DPushes remaining with DInf 1.0811065e-01               762s
   37382 DPushes remaining with DInf 1.0811065e-01               767s
   37142 DPushes remaining with DInf 1.0811065e-01               773s
   36902 DPushes remaining with DInf 1.0811065e-01               778s
   36662 DPushes remaining with DInf 1.0811065e-01               784s
   36422 DPushes remaining with DInf 1.0811065e-01               789s
   36182 DPushes remaining with DInf 1.0811065e-01               795s
   35942 DPushes remaining with DInf 1.0811065e-01               801s
   35702 DPushes remaining with DInf 1.0811065e-01               806s
   35462 DPushes remaining with DInf 1.0811065e-01               812s
   35222 DPushes remaining with DInf 1.0811065e-01               817s
   34982 DPushes remaining with DInf 1.0811065e-01               823s
   34742 DPushes remaining with DInf 1.0811065e-01               828s
   34502 DPushes remaining with DInf 1.0811065e-01               834s
   34262 DPushes remaining with DInf 1.0811065e-01               840s
   34022 DPushes remaining with DInf 1.0811065e-01               845s
   33782 DPushes remaining with DInf 1.0811065e-01               851s
   33542 DPushes remaining with DInf 1.0811065e-01               856s
   33302 DPushes remaining with DInf 1.0811065e-01               862s
   33062 DPushes remaining with DInf 1.0811065e-01               867s
   32822 DPushes remaining with DInf 1.0811065e-01               873s
   32582 DPushes remaining with DInf 1.0811065e-01               879s
   32342 DPushes remaining with DInf 1.0811065e-01               884s
   32102 DPushes remaining with DInf 1.0811065e-01               890s
   31862 DPushes remaining with DInf 1.0811065e-01               895s
   31622 DPushes remaining with DInf 1.0811065e-01               901s
   31382 DPushes remaining with DInf 1.0811065e-01               907s
   31142 DPushes remaining with DInf 1.0811065e-01               912s
   30902 DPushes remaining with DInf 1.0811065e-01               918s
   30662 DPushes remaining with DInf 1.0811065e-01               923s
   30422 DPushes remaining with DInf 1.0811065e-01               929s
   30182 DPushes remaining with DInf 1.0811065e-01               935s
   29942 DPushes remaining with DInf 1.0811065e-01               940s
   29712 DPushes remaining with DInf 1.0811065e-01               946s
   29482 DPushes remaining with DInf 1.0811065e-01               951s
   29272 DPushes remaining with DInf 1.0811065e-01               957s
   29052 DPushes remaining with DInf 1.0811065e-01               963s
   28852 DPushes remaining with DInf 1.0811065e-01               968s
   28652 DPushes remaining with DInf 1.0811065e-01               973s
   28452 DPushes remaining with DInf 1.0811065e-01               979s
   28252 DPushes remaining with DInf 1.0811065e-01               985s
   28052 DPushes remaining with DInf 1.0811065e-01               990s
   27852 DPushes remaining with DInf 1.0811065e-01               996s
   27652 DPushes remaining with DInf 1.0811065e-01              1001s
   27442 DPushes remaining with DInf 1.0811065e-01              1007s
   27242 DPushes remaining with DInf 1.0811065e-01              1012s
   27042 DPushes remaining with DInf 1.0811065e-01              1018s
   26842 DPushes remaining with DInf 1.0811065e-01              1023s
   26642 DPushes remaining with DInf 1.0708769e-01              1029s
   26442 DPushes remaining with DInf 1.0657909e-01              1034s
   26242 DPushes remaining with DInf 1.0657909e-01              1040s
   26042 DPushes remaining with DInf 1.0657909e-01              1045s
   25842 DPushes remaining with DInf 1.0657909e-01              1051s
   25642 DPushes remaining with DInf 1.0657909e-01              1057s
   25442 DPushes remaining with DInf 1.0657909e-01              1062s
   25242 DPushes remaining with DInf 1.0657909e-01              1068s
   25042 DPushes remaining with DInf 1.0657909e-01              1073s
   24842 DPushes remaining with DInf 1.0657909e-01              1078s
   24642 DPushes remaining with DInf 1.0657909e-01              1084s
   24442 DPushes remaining with DInf 1.0599684e-01              1090s
   24242 DPushes remaining with DInf 1.0599684e-01              1095s
   24002 DPushes remaining with DInf 1.0599684e-01              1101s
   23792 DPushes remaining with DInf 1.0599684e-01              1106s
   23592 DPushes remaining with DInf 1.0599684e-01              1112s
   23412 DPushes remaining with DInf 1.0542607e-01              1117s
   23212 DPushes remaining with DInf 1.0542607e-01              1123s
   23012 DPushes remaining with DInf 1.0542607e-01              1128s
   22812 DPushes remaining with DInf 1.0542607e-01              1134s
   22612 DPushes remaining with DInf 1.0542607e-01              1139s
   22412 DPushes remaining with DInf 1.0542607e-01              1145s
   22202 DPushes remaining with DInf 1.0542607e-01              1150s
   21972 DPushes remaining with DInf 1.0542607e-01              1156s
   21772 DPushes remaining with DInf 1.0542607e-01              1162s
   21572 DPushes remaining with DInf 1.0542607e-01              1167s
   21382 DPushes remaining with DInf 1.0542607e-01              1172s
   21192 DPushes remaining with DInf 1.0542607e-01              1178s
   20992 DPushes remaining with DInf 1.0542607e-01              1184s
   20792 DPushes remaining with DInf 1.0542607e-01              1189s
   20582 DPushes remaining with DInf 1.0542607e-01              1195s
   20362 DPushes remaining with DInf 1.0542607e-01              1201s
   20152 DPushes remaining with DInf 1.0285240e-01              1206s
   19932 DPushes remaining with DInf 1.0285240e-01              1212s
   19702 DPushes remaining with DInf 1.0285240e-01              1217s
   19432 DPushes remaining with DInf 1.0285240e-01              1223s
   19182 DPushes remaining with DInf 1.0285240e-01              1228s
   18972 DPushes remaining with DInf 1.0285240e-01              1234s
   18732 DPushes remaining with DInf 1.0285240e-01              1239s
   18472 DPushes remaining with DInf 1.0285240e-01              1245s
   18182 DPushes remaining with DInf 1.0285240e-01              1251s
   17892 DPushes remaining with DInf 1.0285240e-01              1256s
   17602 DPushes remaining with DInf 1.0285240e-01              1262s
   17312 DPushes remaining with DInf 1.0285240e-01              1268s
   17022 DPushes remaining with DInf 1.0285240e-01              1273s
   16732 DPushes remaining with DInf 1.0285240e-01              1279s
   16442 DPushes remaining with DInf 1.0285240e-01              1285s
   16152 DPushes remaining with DInf 1.0285240e-01              1290s
   15862 DPushes remaining with DInf 1.0285240e-01              1296s
   15572 DPushes remaining with DInf 1.0285240e-01              1301s
   15282 DPushes remaining with DInf 1.0285240e-01              1307s
   14992 DPushes remaining with DInf 1.0285240e-01              1313s
   14702 DPushes remaining with DInf 1.0285240e-01              1318s
   14412 DPushes remaining with DInf 1.0285240e-01              1324s
   14122 DPushes remaining with DInf 1.0285240e-01              1330s
   13832 DPushes remaining with DInf 1.0285240e-01              1336s
   13542 DPushes remaining with DInf 1.0285240e-01              1341s
   13252 DPushes remaining with DInf 1.0285240e-01              1347s
   12962 DPushes remaining with DInf 1.0285240e-01              1353s
   12672 DPushes remaining with DInf 1.0285240e-01              1358s
   12382 DPushes remaining with DInf 1.0285240e-01              1364s
   12092 DPushes remaining with DInf 1.0285240e-01              1370s
   11802 DPushes remaining with DInf 1.0285240e-01              1375s
   11522 DPushes remaining with DInf 1.0285240e-01              1381s
   11262 DPushes remaining with DInf 1.0285240e-01              1386s
   11022 DPushes remaining with DInf 1.0285240e-01              1392s
   10772 DPushes remaining with DInf 1.0285240e-01              1397s
   10542 DPushes remaining with DInf 1.0285240e-01              1403s
   10322 DPushes remaining with DInf 1.0285240e-01              1408s
   10102 DPushes remaining with DInf 1.0285240e-01              1414s
    9892 DPushes remaining with DInf 1.0285240e-01              1420s
    9682 DPushes remaining with DInf 1.0285240e-01              1425s
    9472 DPushes remaining with DInf 1.0285240e-01              1431s
    9262 DPushes remaining with DInf 1.0285240e-01              1437s
    9052 DPushes remaining with DInf 1.0285240e-01              1442s
    8842 DPushes remaining with DInf 1.0285240e-01              1448s
    8632 DPushes remaining with DInf 1.0285240e-01              1453s
    8422 DPushes remaining with DInf 1.0285240e-01              1459s
    8212 DPushes remaining with DInf 1.0285240e-01              1465s
    8002 DPushes remaining with DInf 1.0285240e-01              1470s
    7792 DPushes remaining with DInf 1.0285240e-01              1476s
    7582 DPushes remaining with DInf 1.0285240e-01              1481s
    7372 DPushes remaining with DInf 1.0285240e-01              1487s
    7162 DPushes remaining with DInf 1.0285240e-01              1493s
    6952 DPushes remaining with DInf 1.0285240e-01              1498s
    6742 DPushes remaining with DInf 1.0285240e-01              1504s
    6532 DPushes remaining with DInf 1.0285240e-01              1510s
    6322 DPushes remaining with DInf 1.0285240e-01              1515s
    6112 DPushes remaining with DInf 1.0285240e-01              1521s
    5902 DPushes remaining with DInf 1.0285240e-01              1526s
    5692 DPushes remaining with DInf 1.0285240e-01              1532s
    5482 DPushes remaining with DInf 1.0285240e-01              1537s
    5272 DPushes remaining with DInf 1.0285240e-01              1543s
    5062 DPushes remaining with DInf 1.0285240e-01              1549s
    4852 DPushes remaining with DInf 1.0285240e-01              1554s
    4642 DPushes remaining with DInf 1.0285240e-01              1560s
    4432 DPushes remaining with DInf 1.0285240e-01              1566s
    4222 DPushes remaining with DInf 1.0285240e-01              1571s
    4012 DPushes remaining with DInf 1.0285240e-01              1577s
    3802 DPushes remaining with DInf 1.0285240e-01              1582s
    3592 DPushes remaining with DInf 1.0285240e-01              1588s
    3382 DPushes remaining with DInf 1.0285240e-01              1594s
    3172 DPushes remaining with DInf 1.0285240e-01              1599s
    2962 DPushes remaining with DInf 1.0285240e-01              1605s
    2742 DPushes remaining with DInf 1.0285280e-01              1610s
    2512 DPushes remaining with DInf 1.0305151e-01              1616s
    2302 DPushes remaining with DInf 1.0305151e-01              1621s
    2082 DPushes remaining with DInf 1.0270761e-01              1627s
    1852 DPushes remaining with DInf 1.0270761e-01              1633s
    1632 DPushes remaining with DInf 1.0034013e-01              1638s
    1432 DPushes remaining with DInf 1.0034013e-01              1644s
    1222 DPushes remaining with DInf 1.0034013e-01              1649s
     972 DPushes remaining with DInf 9.9594909e-02              1655s
     682 DPushes remaining with DInf 9.9653495e-02              1660s
     282 DPushes remaining with DInf 9.9653659e-02              1665s
       0 DPushes remaining with DInf 9.9941074e-02              1671s

  177639 PPushes remaining with PInf 7.6062210e-05              1671s
   84527 PPushes remaining with PInf 3.1581357e-06              1677s
   66117 PPushes remaining with PInf 3.1581358e-06              1680s
   41440 PPushes remaining with PInf 3.1581358e-06              1687s
   29857 PPushes remaining with PInf 3.1581358e-06              1691s
   20965 PPushes remaining with PInf 3.1581358e-06              1697s
   13747 PPushes remaining with PInf 3.1581358e-06              1702s
    8790 PPushes remaining with PInf 3.1581358e-06              1710s
    4596 PPushes remaining with PInf 3.1581357e-06              1715s
    1395 PPushes remaining with PInf 3.1581357e-06              1723s
     430 PPushes remaining with PInf 3.1581357e-06              1730s
       0 PPushes remaining with PInf 0.0000000e+00              1740s

  Push phase complete: Pinf 0.0000000e+00, Dinf 2.7018154e-01   1740s


Root simplex log...

Iteration    Objective       Primal Inf.    Dual Inf.      Time
  245612    9.6013489e+01   0.000000e+00   2.701815e-01   1757s
  246295    9.6013489e+01   0.000000e+00   8.294594e-03   1775s
  246592    9.6013489e+01   0.000000e+00   0.000000e+00   1794s
  246592    9.6013489e+01   0.000000e+00   0.000000e+00   1827s

Root relaxation: objective 9.601349e+01, 246592 iterations, 1783.25 seconds (3414.77 work units)
Total elapsed time = 1973.20s

    Nodes    |    Current Node    |     Objective Bounds      |     Work
 Expl Unexpl |  Obj  Depth IntInf | Incumbent    BestBd   Gap | It/Node Time

     0     0   96.01349    0   13          -   96.01349      -     - 1979s
H    0     0                     128.2208113   96.01349  25.1%     - 2463s
     0     0   97.91389    0   12  128.22081   97.91389  23.6%     - 5028s
H    0     0                     112.3256417   97.91389  12.8%     - 5186s
     0     0   97.91437    0   12  112.32564   97.91437  12.8%     - 5229s
     0     0   97.91437    0   12  112.32564   97.91437  12.8%     - 5243s
     0     0   99.00705    0   10  112.32564   99.00705  11.9%     - 8058s
     0     0   99.00791    0   10  112.32564   99.00791  11.9%     - 8279s
     0     0   99.00791    0   10  112.32564   99.00791  11.9%     - 8291s
     0     0   99.15991    0   10  112.32564   99.15991  11.7%     - 9343s
     0     0   99.16594    0   11  112.32564   99.16594  11.7%     - 9827s
     0     0   99.16630    0   11  112.32564   99.16630  11.7%     - 9946s
     0     0   99.16634    0   11  112.32564   99.16634  11.7%     - 9982s
     0     0   99.21750    0   11  112.32564   99.21750  11.7%     - 10474s
     0     0   99.24191    0   11  112.32564   99.24191  11.6%     - 11069s
     0     0   99.24201    0   11  112.32564   99.24201  11.6%     - 11163s
     0     0   99.25936    0   11  112.32564   99.25936  11.6%     - 13213s
H    0     0                     111.8549003   99.25936  11.3%     - 16598s
H    0     0                     107.3056132   99.25936  7.50%     - 50190s
     0     2   99.25936    0   11  107.30561   99.25936  7.50%     - 50286s
     1     4  102.49766    1   10  107.30561   99.25941  7.50% 267045 53134s
     3     6     cutoff    2       107.30561   99.25987  7.50% 186433 55809s
     7    10  100.96655    3    9  107.30561   99.32984  7.43% 134706 57784s
    13    14  101.02459    4    8  107.30561  100.96702  5.91% 118907 68138s
    23    22  104.21130    5    8  107.30561  101.02481  5.85% 117137 75549s
    37    28  105.02246    6    8  107.30561  102.36683  4.60% 104437 77918s
    59    28  105.15602    7    7  107.30561  102.78485  4.21% 85996 79280s
    87    28     cutoff    8       107.30561  102.79372  4.20% 71356 80949s
   115    32  106.07747    9    6  107.30561  104.11741  2.97% 63159 97630s
   143    19  107.29688   10    6  107.30561  104.13241  2.96% 57917 98942s
   175     8     cutoff   11       107.30561  104.17752  2.92% 54304 99895s
   194     4  107.06955   12    7  107.30561  105.06695  2.09% 52725 101034s

Cutting planes:
  Gomory: 1
  Implied bound: 58
  MIR: 48054
  Relax-and-lift: 22

Explored 202 nodes (11429394 simplex iterations) in 101035.47 seconds (164842.65 work units)
Thread count was 36 (of 36 available processors)

Solution count 4: 107.306 111.855 112.326 128.221 

Optimal solution found (tolerance 1.00e-02)
Best objective 1.073056131673e+02, best bound 1.069270065187e+02, gap 0.3528%
Termination condition:  optimal
# ==========================================================
# = Solver Results                                         =
# ==========================================================
# ----------------------------------------------------------
#   Problem Information
# ----------------------------------------------------------
Problem: 
- Name: x1
  Lower bound: 106.92700651874836
  Upper bound: 107.3056131672966
  Number of objectives: 1
  Number of constraints: 3887523
  Number of variables: 2254155
  Number of binary variables: 39
  Number of integer variables: 39
  Number of continuous variables: 2254116
  Number of nonzeros: 10754708
  Sense: minimize
# ----------------------------------------------------------
#   Solver Information
# ----------------------------------------------------------
Solver: 
- Status: ok
  Return code: 0
  Message: Model was solved to optimality (subject to tolerances), and an optimal solution is available.
  Termination condition: optimal
  Termination message: Model was solved to optimality (subject to tolerances), and an optimal solution is available.
  Wall time: 101035.51938986778
  Error rc: 0
  Time: 101060.67603993416
# ----------------------------------------------------------
#   Solution Information
# ----------------------------------------------------------
Solution: 
- number of solutions: 0
  number of solutions displayed: 0
# ============================================================================= #
# ============================================================================= #
fixing: vNetworkInvest[2030,N_109,N_111,cac1]
fixing: vNetworkInvest[2030,N_119,N_120,cac2]
fixing: vNetworkInvest[2030,N_116,N_119,cac1]
fixing: vNetworkInvest[2030,N_118,N_121,cac1]
fixing: vNetworkInvest[2030,N_101,N_102,cac1]
fixing: vNetworkInvest[2030,N_103,N_124,cac1]
fixing: vNetworkInvest[2030,N_120,N_123,cac1]
fixing: vNetworkInvest[2030,N_109,N_112,cac1]
fixing: vNetworkInvest[2030,N_103,N_109,cac1]
fixing: vNetworkInvest[2030,N_115,N_116,cac1]
fixing: vNetworkInvest[2030,N_115,N_121,cac1]
fixing: vNetworkInvest[2030,N_102,N_104,cac1]
fixing: vNetworkInvest[2030,N_110,N_111,cac1]
fixing: vNetworkInvest[2030,N_112,N_123,cac1]
fixing: vNetworkInvest[2030,N_107,N_108,cac1]
fixing: vNetworkInvest[2030,N_117,N_118,cac1]
fixing: vNetworkInvest[2030,N_101,N_105,cac1]
fixing: vNetworkInvest[2030,N_108,N_109,cac1]
fixing: vNetworkInvest[2030,N_111,N_113,cac1]
fixing: vNetworkInvest[2030,N_102,N_106,cac1]
fixing: vNetworkInvest[2030,N_104,N_109,cac1]
fixing: vNetworkInvest[2030,N_106,N_108,cac1]
fixing: vNetworkInvest[2030,N_117,N_122,cac1]
fixing: vNetworkInvest[2030,N_119,N_120,cac1]
fixing: vNetworkInvest[2030,N_118,N_121,cac2]
fixing: vNetworkInvest[2030,N_110,N_112,cac1]
fixing: vNetworkInvest[2030,N_111,N_114,cac1]
fixing: vNetworkInvest[2030,N_121,N_122,cac1]
fixing: vNetworkInvest[2030,N_108,N_110,cac1]
fixing: vNetworkInvest[2030,N_120,N_123,cac2]
fixing: vNetworkInvest[2030,N_115,N_124,cac1]
fixing: vNetworkInvest[2030,N_106,N_110,cac1]
fixing: vNetworkInvest[2030,N_105,N_110,cac1]
fixing: vNetworkInvest[2030,N_114,N_116,cac1]
fixing: vNetworkInvest[2030,N_116,N_117,cac1]
fixing: vNetworkInvest[2030,N_101,N_103,cac1]
fixing: vNetworkInvest[2030,N_115,N_121,cac2]
fixing: vNetworkInvest[2030,N_112,N_113,cac1]
fixing: vNetworkInvest[2030,N_113,N_123,cac1]
Number of fixed variables:  39
# ============================================================================= #
# ============================================================================= #
WARNING: Implicitly replacing the Component attribute dual (type=<class
'pyomo.core.base.suffix.Suffix'>) on block 'openStarNet - Open Version of the
StartNetLite Model (Long Term Transmission Expansion Planning) - Version 1.0.0
- January 16, 2023' with a new Component (type=<class
'pyomo.core.base.suffix.Suffix'>). This is usually indicative of a modelling
error. To avoid this warning, use block.del_component() and
block.add_component().
WARNING: Implicitly replacing the Component attribute rc (type=<class
'pyomo.core.base.suffix.Suffix'>) on block 'openStarNet - Open Version of the
StartNetLite Model (Long Term Transmission Expansion Planning) - Version 1.0.0
- January 16, 2023' with a new Component (type=<class
'pyomo.core.base.suffix.Suffix'>). This is usually indicative of a modelling
error. To avoid this warning, use block.del_component() and
block.add_component().
# ==========================================================
# = Solver Results                                         =
# ==========================================================
# ----------------------------------------------------------
#   Problem Information
# ----------------------------------------------------------
Problem: 
- Name: x1
  Lower bound: 107.30561316729641
  Upper bound: 107.30561316729641
  Number of objectives: 1
  Number of constraints: 3887523
  Number of variables: 2254116
  Number of binary variables: 0
  Number of integer variables: 0
  Number of continuous variables: 2254116
  Number of nonzeros: 9391853
  Sense: minimize
# ----------------------------------------------------------
#   Solver Information
# ----------------------------------------------------------
Solver: 
- Status: ok
  Return code: 0
  Message: Model was solved to optimality (subject to tolerances), and an optimal solution is available.
  Termination condition: optimal
  Termination message: Model was solved to optimality (subject to tolerances), and an optimal solution is available.
  Wall time: 147.44132804870605
  Error rc: 0
  Time: 183.91820311546326
# ----------------------------------------------------------
#   Solution Information
# ----------------------------------------------------------
Solution: 
- number of solutions: 0
  number of solutions displayed: 0
Solving                               ...  101463 s
Objective function value                   107.31 M€
Objective function value                   107.30561316729641
Writing         cost summary results  ...  0 s
Writing           investment results  ...  0 s
Writing       energy balance results  ...  128 s
Writing    network operation results  ...  7 s
Writing generation operation results  ...  14 s
Writing        ESS operation results  ...  0 s
Writing             economic results  ...  2 s

 #### Academic research license - for non-commercial use only #### 

Elapsed time: 101807 seconds
